<?xml version="1.0" encoding="UTF-8"?><osil xmlns="os.optimizationservices.org"   xmlns:xsi="http://www.w3.org/2001/XMLSchema-instance" xsi:schemaLocation="os.optimizationservices.org http://www.optimizationservices.org/schemas/2.0/OSiL.xsd" ><instanceHeader><name>q_30_0_25_2</name></instanceHeader><instanceData><variables numberOfVariables="30"><var name="x1" ub="1"/><var name="x2" ub="1"/><var name="x3" ub="1"/><var name="x4" ub="1"/><var name="x5" ub="1"/><var name="x6" ub="1"/><var name="x7" ub="1"/><var name="x8" ub="1"/><var name="x9" ub="1"/><var name="x10" ub="1"/><var name="x11" ub="1"/><var name="x12" ub="1"/><var name="x13" ub="1"/><var name="x14" ub="1"/><var name="x15" ub="1"/><var name="x16" ub="1"/><var name="x17" ub="1"/><var name="x18" ub="1"/><var name="x19" ub="1"/><var name="x20" ub="1"/><var name="x21" ub="1"/><var name="x22" ub="1"/><var name="x23" ub="1"/><var name="x24" ub="1"/><var name="x25" ub="1"/><var name="x26" ub="1"/><var name="x27" ub="1"/><var name="x28" ub="1"/><var name="x29" ub="1"/><var name="x30" ub="1"/></variables><objectives numberOfObjectives="1"><obj maxOrMin="min" name="defObj_x31" numberOfObjCoef="30"><coef idx="0">-.9826</coef><coef idx="1">-.4008</coef><coef idx="2">.947</coef><coef idx="3">.9103</coef><coef idx="4">-.5734</coef><coef idx="5">.3479</coef><coef idx="6">7.23e-2</coef><coef idx="7">-.2806</coef><coef idx="8">-.9973</coef><coef idx="9">.6989</coef><coef idx="10">-.1571</coef><coef idx="11">.4957</coef><coef idx="12">-.9767</coef><coef idx="13">.2287</coef><coef idx="14">-.1111</coef><coef idx="15">.3253</coef><coef idx="16">.3775</coef><coef idx="17">.8783</coef><coef idx="18">.4335</coef><coef idx="19">-9.67e-2</coef><coef idx="20">.269</coef><coef idx="21">-.5516</coef><coef idx="22">-.2037</coef><coef idx="23">.6602</coef><coef idx="24">-.722</coef><coef idx="25">.5119</coef><coef idx="26">.586</coef><coef idx="27">-.5442</coef><coef idx="28">5.62e-2</coef><coef idx="29">-.7251</coef></obj></objectives><quadraticCoefficients  numberOfQuadraticTerms="116" ><qTerm  idx="-1"  idxOne="0"  idxTwo="1"  coef="-8.59e-2"/><qTerm  idx="-1"  idxOne="0"  idxTwo="5"  coef="1.7749"/><qTerm  idx="-1"  idxOne="0"  idxTwo="7"  coef="1.5617"/><qTerm  idx="-1"  idxOne="0"  idxTwo="8"  coef="-1.2747"/><qTerm  idx="-1"  idxOne="0"  idxTwo="12"  coef="-.3472"/><qTerm  idx="-1"  idxOne="0"  idxTwo="13"  coef="-.6436"/><qTerm  idx="-1"  idxOne="0"  idxTwo="15"  coef="-.1915"/><qTerm  idx="-1"  idxOne="1"  idxTwo="4"  coef="1.2276"/><qTerm  idx="-1"  idxOne="1"  idxTwo="11"  coef="-.392"/><qTerm  idx="-1"  idxOne="1"  idxTwo="12"  coef=".9493"/><qTerm  idx="-1"  idxOne="1"  idxTwo="16"  coef="-1.4246"/><qTerm  idx="-1"  idxOne="1"  idxTwo="19"  coef="-1.5214"/><qTerm  idx="-1"  idxOne="1"  idxTwo="21"  coef=".3394"/><qTerm  idx="-1"  idxOne="1"  idxTwo="22"  coef=".8266"/><qTerm  idx="-1"  idxOne="1"  idxTwo="25"  coef="1.7521"/><qTerm  idx="-1"  idxOne="1"  idxTwo="26"  coef="-1.921"/><qTerm  idx="-1"  idxOne="2"  idxTwo="3"  coef=".6069"/><qTerm  idx="-1"  idxOne="2"  idxTwo="6"  coef="-1.9306"/><qTerm  idx="-1"  idxOne="2"  idxTwo="13"  coef=".802"/><qTerm  idx="-1"  idxOne="2"  idxTwo="17"  coef="-.2435"/><qTerm  idx="-1"  idxOne="2"  idxTwo="24"  coef="1.4859"/><qTerm  idx="-1"  idxOne="2"  idxTwo="25"  coef="-.6227"/><qTerm  idx="-1"  idxOne="3"  idxTwo="4"  coef="-.1803"/><qTerm  idx="-1"  idxOne="3"  idxTwo="7"  coef="1.6421"/><qTerm  idx="-1"  idxOne="3"  idxTwo="16"  coef="1.3266"/><qTerm  idx="-1"  idxOne="3"  idxTwo="19"  coef="-.1552"/><qTerm  idx="-1"  idxOne="3"  idxTwo="20"  coef=".105"/><qTerm  idx="-1"  idxOne="3"  idxTwo="22"  coef="1.298"/><qTerm  idx="-1"  idxOne="3"  idxTwo="24"  coef=".1426"/><qTerm  idx="-1"  idxOne="4"  idxTwo="9"  coef="-.6297"/><qTerm  idx="-1"  idxOne="4"  idxTwo="11"  coef=".8014"/><qTerm  idx="-1"  idxOne="4"  idxTwo="17"  coef="-1.4236"/><qTerm  idx="-1"  idxOne="4"  idxTwo="18"  coef="1.0739"/><qTerm  idx="-1"  idxOne="4"  idxTwo="21"  coef="-.4811"/><qTerm  idx="-1"  idxOne="4"  idxTwo="25"  coef="1.8882"/><qTerm  idx="-1"  idxOne="5"  idxTwo="6"  coef="1.9506"/><qTerm  idx="-1"  idxOne="5"  idxTwo="14"  coef="-1.2196"/><qTerm  idx="-1"  idxOne="5"  idxTwo="16"  coef="-.7798"/><qTerm  idx="-1"  idxOne="5"  idxTwo="18"  coef="1.0349"/><qTerm  idx="-1"  idxOne="5"  idxTwo="19"  coef="1.2732"/><qTerm  idx="-1"  idxOne="5"  idxTwo="21"  coef="3.97e-2"/><qTerm  idx="-1"  idxOne="5"  idxTwo="25"  coef="-1.0242"/><qTerm  idx="-1"  idxOne="6"  idxTwo="8"  coef="1.7946"/><qTerm  idx="-1"  idxOne="6"  idxTwo="14"  coef="-.2195"/><qTerm  idx="-1"  idxOne="6"  idxTwo="16"  coef="1.2909"/><qTerm  idx="-1"  idxOne="6"  idxTwo="19"  coef=".5187"/><qTerm  idx="-1"  idxOne="6"  idxTwo="20"  coef="1.8008"/><qTerm  idx="-1"  idxOne="6"  idxTwo="25"  coef="-1.23"/><qTerm  idx="-1"  idxOne="6"  idxTwo="26"  coef="1.1997"/><qTerm  idx="-1"  idxOne="7"  idxTwo="9"  coef="-.2684"/><qTerm  idx="-1"  idxOne="7"  idxTwo="11"  coef="-.6835"/><qTerm  idx="-1"  idxOne="7"  idxTwo="12"  coef=".82"/><qTerm  idx="-1"  idxOne="7"  idxTwo="19"  coef="-.7025"/><qTerm  idx="-1"  idxOne="7"  idxTwo="20"  coef="1.5941"/><qTerm  idx="-1"  idxOne="7"  idxTwo="28"  coef="-.4947"/><qTerm  idx="-1"  idxOne="8"  idxTwo="10"  coef="1.3817"/><qTerm  idx="-1"  idxOne="8"  idxTwo="14"  coef="-1.0457"/><qTerm  idx="-1"  idxOne="8"  idxTwo="15"  coef="-1.0687"/><qTerm  idx="-1"  idxOne="8"  idxTwo="24"  coef=".4992"/><qTerm  idx="-1"  idxOne="8"  idxTwo="26"  coef="7.66e-2"/><qTerm  idx="-1"  idxOne="8"  idxTwo="27"  coef="1.9452"/><qTerm  idx="-1"  idxOne="8"  idxTwo="29"  coef="1.9137"/><qTerm  idx="-1"  idxOne="9"  idxTwo="9"  coef=".7055"/><qTerm  idx="-1"  idxOne="9"  idxTwo="10"  coef="1.3148"/><qTerm  idx="-1"  idxOne="9"  idxTwo="15"  coef="-1.1083"/><qTerm  idx="-1"  idxOne="9"  idxTwo="25"  coef="1.3733"/><qTerm  idx="-1"  idxOne="9"  idxTwo="28"  coef=".8169"/><qTerm  idx="-1"  idxOne="10"  idxTwo="12"  coef="-.1562"/><qTerm  idx="-1"  idxOne="10"  idxTwo="21"  coef="-1.367"/><qTerm  idx="-1"  idxOne="10"  idxTwo="23"  coef="1.0573"/><qTerm  idx="-1"  idxOne="10"  idxTwo="24"  coef=".2082"/><qTerm  idx="-1"  idxOne="11"  idxTwo="13"  coef="1.6889"/><qTerm  idx="-1"  idxOne="11"  idxTwo="15"  coef="-1.4168"/><qTerm  idx="-1"  idxOne="11"  idxTwo="18"  coef="1.3009"/><qTerm  idx="-1"  idxOne="11"  idxTwo="19"  coef="-1.0334"/><qTerm  idx="-1"  idxOne="11"  idxTwo="20"  coef="-1.1985"/><qTerm  idx="-1"  idxOne="11"  idxTwo="21"  coef=".4882"/><qTerm  idx="-1"  idxOne="11"  idxTwo="25"  coef=".4986"/><qTerm  idx="-1"  idxOne="11"  idxTwo="27"  coef="-1.0045"/><qTerm  idx="-1"  idxOne="11"  idxTwo="29"  coef=".6483"/><qTerm  idx="-1"  idxOne="12"  idxTwo="16"  coef="1.9972"/><qTerm  idx="-1"  idxOne="12"  idxTwo="20"  coef="-.1908"/><qTerm  idx="-1"  idxOne="12"  idxTwo="21"  coef="1.244"/><qTerm  idx="-1"  idxOne="12"  idxTwo="22"  coef="-1.1303"/><qTerm  idx="-1"  idxOne="12"  idxTwo="24"  coef="1.46"/><qTerm  idx="-1"  idxOne="12"  idxTwo="29"  coef="1.2328"/><qTerm  idx="-1"  idxOne="13"  idxTwo="22"  coef="-.1751"/><qTerm  idx="-1"  idxOne="13"  idxTwo="27"  coef=".669"/><qTerm  idx="-1"  idxOne="14"  idxTwo="21"  coef="-.9814"/><qTerm  idx="-1"  idxOne="14"  idxTwo="28"  coef=".4531"/><qTerm  idx="-1"  idxOne="14"  idxTwo="29"  coef="-1.1227"/><qTerm  idx="-1"  idxOne="15"  idxTwo="23"  coef="-1.1369"/><qTerm  idx="-1"  idxOne="15"  idxTwo="25"  coef="1.1057"/><qTerm  idx="-1"  idxOne="16"  idxTwo="19"  coef="-1.7873"/><qTerm  idx="-1"  idxOne="16"  idxTwo="20"  coef="1.5024"/><qTerm  idx="-1"  idxOne="16"  idxTwo="21"  coef="1.6113"/><qTerm  idx="-1"  idxOne="16"  idxTwo="22"  coef=".5837"/><qTerm  idx="-1"  idxOne="16"  idxTwo="23"  coef="-5.66e-2"/><qTerm  idx="-1"  idxOne="16"  idxTwo="24"  coef=".2378"/><qTerm  idx="-1"  idxOne="16"  idxTwo="26"  coef="-.4675"/><qTerm  idx="-1"  idxOne="17"  idxTwo="18"  coef="1.849"/><qTerm  idx="-1"  idxOne="18"  idxTwo="21"  coef="-1.8948"/><qTerm  idx="-1"  idxOne="18"  idxTwo="29"  coef="-.8299"/><qTerm  idx="-1"  idxOne="20"  idxTwo="25"  coef="-.5502"/><qTerm  idx="-1"  idxOne="21"  idxTwo="23"  coef=".9158"/><qTerm  idx="-1"  idxOne="21"  idxTwo="25"  coef=".5493"/><qTerm  idx="-1"  idxOne="21"  idxTwo="26"  coef=".96"/><qTerm  idx="-1"  idxOne="21"  idxTwo="29"  coef="1.0419"/><qTerm  idx="-1"  idxOne="22"  idxTwo="23"  coef="1.0136"/><qTerm  idx="-1"  idxOne="22"  idxTwo="25"  coef="-1.4884"/><qTerm  idx="-1"  idxOne="22"  idxTwo="26"  coef=".3586"/><qTerm  idx="-1"  idxOne="23"  idxTwo="23"  coef="-1.209"/><qTerm  idx="-1"  idxOne="23"  idxTwo="25"  coef="-1.4368"/><qTerm  idx="-1"  idxOne="23"  idxTwo="26"  coef="1.6608"/><qTerm  idx="-1"  idxOne="28"  idxTwo="28"  coef="-.5011"/><qTerm  idx="-1"  idxOne="28"  idxTwo="29"  coef="-.6363"/></quadraticCoefficients></instanceData></osil>
